Ni   C    O    H 
   1.0000000000000000     
   9.9560634791065894   0.0000000000000000   0.0000000000000000
   4.9780317395532903   8.6222038945967903   0.0000000000000000
   0.0000000000000000   0.0000000000000000  36.0968188426423993
Ni   C    O    H 
64  5  2  8  
Selective dynamics
Direct
  0.0000000000000000  0.0000000000000000  0.4155500000000032 F F F
  0.2500000000000000  0.0000000000000000  0.4155500000000032 F F F
  0.5000000000000000  0.0000000000000000  0.4155500000000032 F F F
  0.7500000000000000  0.0000000000000000  0.4155500000000032 F F F
  0.0000000000000000  0.2500000000000000  0.4155500000000032 F F F
  0.2500000000000000  0.2500000000000000  0.4155500000000032 F F F
  0.5000000000000000  0.2500000000000000  0.4155500000000032 F F F
  0.7500000000000000  0.2500000000000000  0.4155500000000032 F F F
  0.0000000000000000  0.5000000000000000  0.4155500000000032 F F F
  0.2500000000000000  0.5000000000000000  0.4155500000000032 F F F
  0.5000000000000000  0.5000000000000000  0.4155500000000032 F F F
  0.7500000000000000  0.5000000000000000  0.4155500000000032 F F F
  0.0000000000000000  0.7500000000000000  0.4155500000000032 F F F
  0.2500000000000000  0.7500000000000000  0.4155500000000032 F F F
  0.5000000000000000  0.7500000000000000  0.4155500000000032 F F F
  0.7500000000000000  0.7500000000000000  0.4155500000000032 F F F
  0.0833299999999966  0.0833299999999966  0.4718500000000034 F F F
  0.3333299999999966  0.0833299999999966  0.4718500000000034 F F F
  0.5833299999999966  0.0833299999999966  0.4718500000000034 F F F
  0.8333299999999966  0.0833299999999966  0.4718500000000034 F F F
  0.0833299999999966  0.3333299999999966  0.4718500000000034 F F F
  0.3333299999999966  0.3333299999999966  0.4718500000000034 F F F
  0.5833299999999966  0.3333299999999966  0.4718500000000034 F F F
  0.8333299999999966  0.3333299999999966  0.4718500000000034 F F F
  0.0833299999999966  0.5833299999999966  0.4718500000000034 F F F
  0.3333299999999966  0.5833299999999966  0.4718500000000034 F F F
  0.5833299999999966  0.5833299999999966  0.4718500000000034 F F F
  0.8333299999999966  0.5833299999999966  0.4718500000000034 F F F
  0.0833299999999966  0.8333299999999966  0.4718500000000034 F F F
  0.3333299999999966  0.8333299999999966  0.4718500000000034 F F F
  0.5833299999999966  0.8333299999999966  0.4718500000000034 F F F
  0.8333299999999966  0.8333299999999966  0.4718500000000034 F F F
  0.9166700000000034  0.1666700000000034  0.5281499999999966 F F F
  0.1666700000000034  0.1666700000000034  0.5281499999999966 F F F
  0.4166700000000034  0.1666700000000034  0.5281499999999966 F F F
  0.6666700000000034  0.1666700000000034  0.5281499999999966 F F F
  0.9166700000000034  0.4166700000000034  0.5281499999999966 F F F
  0.1666700000000034  0.4166700000000034  0.5281499999999966 F F F
  0.4166700000000034  0.4166700000000034  0.5281499999999966 F F F
  0.6666700000000034  0.4166700000000034  0.5281499999999966 F F F
  0.9166700000000034  0.6666700000000034  0.5281499999999966 F F F
  0.1666700000000034  0.6666700000000034  0.5281499999999966 F F F
  0.4166700000000034  0.6666700000000034  0.5281499999999966 F F F
  0.6666700000000034  0.6666700000000034  0.5281499999999966 F F F
  0.9166700000000034  0.9166700000000034  0.5281499999999966 F F F
  0.1666700000000034  0.9166700000000034  0.5281499999999966 F F F
  0.4166700000000034  0.9166700000000034  0.5281499999999966 F F F
  0.6666700000000034  0.9166700000000034  0.5281499999999966 F F F
  0.9988987173665478  0.0025388635564782  0.5823713785592382 T T T
  0.2512406314805432  0.0001136074144662  0.5834058194452615 T T T
  0.5009660646506247  0.9997539075196130  0.5835188602836933 T T T
  0.7490448893919752  0.0003111988309214  0.5836187208619251 T T T
  0.9992561070438007  0.2459585793164697  0.5823678418190986 T T T
  0.2494142130160164  0.2508621188651524  0.5866008043577660 T T T
  0.5031580914503927  0.2468835995697189  0.5822941321979879 T T T
  0.7531181117889252  0.2456541094128726  0.5861273910335436 T T T
  0.0021178137818174  0.4982150479495181  0.5844244312757475 T T T
  0.2567798375525417  0.5021881984350076  0.5856366325785907 T T T
  0.4982034549615700  0.5050900051898408  0.5824646184016665 T T T
  0.7526531369042545  0.4954192142016966  0.5850442501296695 T T T
  0.9977044560315742  0.7509177482878309  0.5834908675292478 T T T
  0.2424819690044047  0.7582282179322222  0.5848269759594203 T T T
  0.5010951028445307  0.7521894372231486  0.5828480824200064 T T T
  0.7506511228771394  0.7484127287847511  0.5832401371938452 T T T
  0.3015241899991233  0.5631900969500325  0.6399696030598098 T T T
  0.4689620559675927  0.4871439231065385  0.6374106675678053 T T T
  0.5638655183983046  0.5590648867306925  0.6333887515526645 T T T
  0.7164008972712501  0.2909543994410402  0.6399130075614882 T T T
  0.7242510034849882  0.4333388079670158  0.6369439957156360 T T T
  0.2206635330205172  0.7159103347773604  0.6362766174836821 T T T
  0.5592587607987231  0.3328165913556382  0.6480945464396850 T T T
  0.7974176709230590  0.1922535949707561  0.6566921847527928 T T T
  0.8152261221730770  0.4458793816290363  0.6507089519881776 T T T
  0.5222230265033933  0.6784167308339304  0.6426320422101232 T T T
  0.2523704523156615  0.5070404218073952  0.6571755546942727 T T T
  0.1729822645151681  0.4271493544675335  0.6086058545437248 T T T
  0.0722108800174355  0.3255700135593492  0.6085106596077223 T T T
  0.8301303747660029  0.8336674205824735  0.6089440763106734 T T T
  0.3392830892361109  0.0798019322023095  0.6094709510503791 T T T
