Ni   C    O    H 
   1.0000000000000000     
   9.9560634791065894   0.0000000000000000   0.0000000000000000
   4.9780317395532903   8.6222038945967903   0.0000000000000000
   0.0000000000000000   0.0000000000000000  36.0968188426423993
Ni   C    O    H 
64  5  2  7  
Selective dynamics
Direct
  0.0000000000000000  0.0000000000000000  0.4155490838511255 F F F
  0.2500000000224318  0.0000000000000000  0.4155490838511255 F F F
  0.5000000000448708  0.0000000000000000  0.4155490838511255 F F F
  0.7499999999668603  0.0000000000000000  0.4155490838511255 F F F
  0.9999999999908766  0.2500000000406857  0.4155490838511255 F F F
  0.2500000000133085  0.2500000000406857  0.4155490838511255 F F F
  0.4999999999352980  0.2500000000406857  0.4155490838511255 F F F
  0.7499999999577369  0.2500000000406857  0.4155490838511255 F F F
  0.0000000000397407  0.4999999999653895  0.4155490838511255 F F F
  0.2500000000621725  0.4999999999653895  0.4155490838511255 F F F
  0.4999999999841620  0.4999999999653895  0.4155490838511255 F F F
  0.7500000000066009  0.4999999999653895  0.4155490838511255 F F F
  0.0000000000306102  0.7500000000060751  0.4155490838511255 F F F
  0.2499999999526068  0.7500000000060751  0.4155490838511255 F F F
  0.4999999999750386  0.7500000000060751  0.4155490838511255 F F F
  0.7499999995957083  0.7500000000060751  0.4155490838511255 F F F
  0.0833333333570963  0.0833333333082322  0.4718496946849839 F F F
  0.3333333333795352  0.0833333333082322  0.4718496946849839 F F F
  0.5833333333015247  0.0833333333082322  0.4718496946849839 F F F
  0.8333333333239565  0.0833333333082322  0.4718496946849839 F F F
  0.0833333333479729  0.3333333333489179  0.4718496946849839 F F F
  0.3333333333704047  0.3333333333489179  0.4718496946849839 F F F
  0.5833333332924013  0.3333333333489179  0.4718496946849839 F F F
  0.8333333333148332  0.3333333333489179  0.4718496946849839 F F F
  0.0833333333388495  0.5833333333896107  0.4718496946849839 F F F
  0.3333333332608390  0.5833333333896107  0.4718496946849839 F F F
  0.5833333332832709  0.5833333333896107  0.4718496946849839 F F F
  0.8333333329039405  0.5833333333896107  0.4718496946849839 F F F
  0.0833333333877135  0.8333333333143145  0.4718496946849839 F F F
  0.3333333333097031  0.8333333333143145  0.4718496946849839 F F F
  0.5833333333321349  0.8333333333143145  0.4718496946849839 F F F
  0.8333333334550090  0.8333333333143145  0.4718496946849839 F F F
  0.9166666666917678  0.1666666666164716  0.5281503055188423 F F F
  0.1666666667141996  0.1666666666164716  0.5281503055188423 F F F
  0.4166666667366314  0.1666666666164716  0.5281503055188423 F F F
  0.6666666666586281  0.1666666666164716  0.5281503055188423 F F F
  0.9166666666826372  0.4166666666571572  0.5281503055188423 F F F
  0.1666666667050691  0.4166666666571572  0.5281503055188423 F F F
  0.4166666666270658  0.4166666666571572  0.5281503055188423 F F F
  0.6666666666494976  0.4166666666571572  0.5281503055188423 F F F
  0.9166666666735140  0.6666666666978429  0.5281503055188423 F F F
  0.1666666666959458  0.6666666666978429  0.5281503055188423 F F F
  0.4166666666179353  0.6666666666978429  0.5281503055188423 F F F
  0.6666666666403742  0.6666666666978429  0.5281503055188423 F F F
  0.9166666667223780  0.9166666666225468  0.5281503055188423 F F F
  0.1666666666443675  0.9166666666225468  0.5281503055188423 F F F
  0.4166666666667993  0.9166666666225468  0.5281503055188423 F F F
  0.6666666662874690  0.9166666666225468  0.5281503055188423 F F F
  0.9996998995300030  0.0005309998181104  0.5826960973480667 T T T
  0.2505225361340466  0.0032288046823623  0.5826928124716314 T T T
  0.4987837533674764  0.9989204857531470  0.5836205543159435 T T T
  0.7494797966480879  0.9983794237904670  0.5833846535914935 T T T
  0.0050913866294277  0.2470908858476502  0.5824519887363447 T T T
  0.2483743143294422  0.2510596700822592  0.5831144161844360 T T T
  0.4991431151428568  0.2475841406996517  0.5830973018663883 T T T
  0.7587957816687497  0.2422429623756916  0.5855299435260801 T T T
  0.0021856329735552  0.5000717731992840  0.5830630216677023 T T T
  0.2490075314784571  0.4972016595645787  0.5829949260841872 T T T
  0.4950500486587561  0.5011340881763346  0.5837563968123242 T T T
  0.7472429794725080  0.4988781564109146  0.5872912531969546 T T T
  0.9963220483215622  0.7504847021827532  0.5828257460335777 T T T
  0.2482216194944989  0.7542320562582582  0.5873270696977279 T T T
  0.4979154971966796  0.7549155957022549  0.5823175612941840 T T T
  0.7494470940311760  0.7507503815779211  0.5830001413319887 T T T
  0.3619657830983922  0.5761223569892363  0.6400704219380287 T T T
  0.5252227905424857  0.4716780778019097  0.6401366219226891 T T T
  0.6497480736899686  0.5070899979798460  0.6381338322093553 T T T
  0.7424230795672269  0.2413304321722965  0.6405359540687490 T T T
  0.7904761200588217  0.3558260634009762  0.6379811394014469 T T T
  0.3059526139972779  0.7260017420517966  0.6402801024747149 T T T
  0.5825960718034692  0.3161324293812644  0.6491116093419360 T T T
  0.2857496908312147  0.5272003519535916  0.6465256490623901 T T T
  0.8088234876111600  0.1289908730653697  0.6539731538288709 T T T
  0.9035480545881528  0.3338394108588169  0.6476015494903181 T T T
  0.6371639426408139  0.6127155790916380  0.6504884353838997 T T T
  0.0590249844753479  0.8447545927203527  0.6083267108325784 T T T
  0.8398672626352511  0.5884828483497856  0.6077498385847978 T T T
  0.5831620678341992  0.0765762913939112  0.6084440300151398 T T T
