Ni   C    O    H 
   1.0000000000000000     
   9.9560634791065894   0.0000000000000000   0.0000000000000000
   4.9780317395532903   8.6222038945967903   0.0000000000000000
   0.0000000000000000   0.0000000000000000  36.0968188426423993
Ni   C    O    H 
64  5  2  5  
Selective dynamics
Direct
  0.0000000000000000  0.0000000000000000  0.4155490838511255 F F F
  0.2500000000224318  0.0000000000000000  0.4155490838511255 F F F
  0.5000000000448708  0.0000000000000000  0.4155490838511255 F F F
  0.7499999999668603  0.0000000000000000  0.4155490838511255 F F F
  0.9999999999908766  0.2500000000406857  0.4155490838511255 F F F
  0.2500000000133085  0.2500000000406857  0.4155490838511255 F F F
  0.4999999999352980  0.2500000000406857  0.4155490838511255 F F F
  0.7499999999577369  0.2500000000406857  0.4155490838511255 F F F
  0.0000000000397407  0.4999999999653895  0.4155490838511255 F F F
  0.2500000000621725  0.4999999999653895  0.4155490838511255 F F F
  0.4999999999841620  0.4999999999653895  0.4155490838511255 F F F
  0.7500000000066009  0.4999999999653895  0.4155490838511255 F F F
  0.0000000000306102  0.7500000000060751  0.4155490838511255 F F F
  0.2499999999526068  0.7500000000060751  0.4155490838511255 F F F
  0.4999999999750386  0.7500000000060751  0.4155490838511255 F F F
  0.7499999995957083  0.7500000000060751  0.4155490838511255 F F F
  0.0833333333570963  0.0833333333082322  0.4718496946849839 F F F
  0.3333333333795352  0.0833333333082322  0.4718496946849839 F F F
  0.5833333333015247  0.0833333333082322  0.4718496946849839 F F F
  0.8333333333239565  0.0833333333082322  0.4718496946849839 F F F
  0.0833333333479729  0.3333333333489179  0.4718496946849839 F F F
  0.3333333333704047  0.3333333333489179  0.4718496946849839 F F F
  0.5833333332924013  0.3333333333489179  0.4718496946849839 F F F
  0.8333333333148332  0.3333333333489179  0.4718496946849839 F F F
  0.0833333333388495  0.5833333333896107  0.4718496946849839 F F F
  0.3333333332608390  0.5833333333896107  0.4718496946849839 F F F
  0.5833333332832709  0.5833333333896107  0.4718496946849839 F F F
  0.8333333329039405  0.5833333333896107  0.4718496946849839 F F F
  0.0833333333877135  0.8333333333143145  0.4718496946849839 F F F
  0.3333333333097031  0.8333333333143145  0.4718496946849839 F F F
  0.5833333333321349  0.8333333333143145  0.4718496946849839 F F F
  0.8333333334550090  0.8333333333143145  0.4718496946849839 F F F
  0.9166666666917678  0.1666666666164716  0.5281503055188423 F F F
  0.1666666667141996  0.1666666666164716  0.5281503055188423 F F F
  0.4166666667366314  0.1666666666164716  0.5281503055188423 F F F
  0.6666666666586281  0.1666666666164716  0.5281503055188423 F F F
  0.9166666666826372  0.4166666666571572  0.5281503055188423 F F F
  0.1666666667050691  0.4166666666571572  0.5281503055188423 F F F
  0.4166666666270658  0.4166666666571572  0.5281503055188423 F F F
  0.6666666666494976  0.4166666666571572  0.5281503055188423 F F F
  0.9166666666735140  0.6666666666978429  0.5281503055188423 F F F
  0.1666666666959458  0.6666666666978429  0.5281503055188423 F F F
  0.4166666666179353  0.6666666666978429  0.5281503055188423 F F F
  0.6666666666403742  0.6666666666978429  0.5281503055188423 F F F
  0.9166666667223780  0.9166666666225468  0.5281503055188423 F F F
  0.1666666666443675  0.9166666666225468  0.5281503055188423 F F F
  0.4166666666667993  0.9166666666225468  0.5281503055188423 F F F
  0.6666666662874690  0.9166666666225468  0.5281503055188423 F F F
  0.0019596553926210  0.0002108129048338  0.5826771279083383 T T T
  0.2513911626237887  0.0017216775115461  0.5828463357505032 T T T
  0.4998899142812555  0.0009865198414360  0.5831380928224721 T T T
  0.7505508715059337  0.0002795505314189  0.5838155557274582 T T T
  0.0044614626099720  0.2487268667773599  0.5825664156229186 T T T
  0.2517541709774325  0.2489905472194171  0.5833154015741264 T T T
  0.5022405741219826  0.2462609137061945  0.5823440966733953 T T T
  0.7593593730003106  0.2419593189920088  0.5858846678909239 T T T
  0.0023743285462964  0.4983796011237440  0.5827225337368216 T T T
  0.2494025811340334  0.4969891189837963  0.5833501617312473 T T T
  0.4935449516738766  0.5022669095411824  0.5837091114452789 T T T
  0.7498156288339484  0.4979956258649233  0.5861940959694532 T T T
  0.9992892724446110  0.7490457912035300  0.5834785507168959 T T T
  0.2464273066628682  0.7547103243949600  0.5856046703311012 T T T
  0.5022993341596462  0.7538267650060076  0.5824694204785321 T T T
  0.7513942456473083  0.7495351684443420  0.5833716949556781 T T T
  0.3552587665928854  0.5729520265921380  0.6380870599296726 T T T
  0.5210031149496386  0.4904710887087371  0.6397472568412653 T T T
  0.6280668018007487  0.5493413451107964  0.6369078189576859 T T T
  0.7578884641621659  0.2793830299080592  0.6403966495876413 T T T
  0.7812232399929729  0.4132106484739577  0.6388049930290663 T T T
  0.2750598469735352  0.7255964403081074  0.6382035311444757 T T T
  0.5992733277787752  0.3352522619578480  0.6498877264735458 T T T
  0.2963771638214793  0.5065318415637597  0.6453933611046331 T T T
  0.8351939256899665  0.1753910343521707  0.6561028430548288 T T T
  0.8831653200725007  0.4111647329490148  0.6505189468503183 T T T
  0.5973975966430304  0.6652587434487877  0.6465853222807817 T T T
  0.8328392829619006  0.8331127897291247  0.6091335675406375 T T T
