Ni   C    O    H 
   1.0000000000000000     
   9.9560634791065894   0.0000000000000000   0.0000000000000000
   4.9780317395532903   8.6222038945967903   0.0000000000000000
   0.0000000000000000   0.0000000000000000  36.0968188426423993
Ni   C    O    H 
64  5  2  11  
Selective dynamics
Direct
  0.0000000000000000  0.0000000000000000  0.4155490838511255 F F F
  0.2500000000224318  0.0000000000000000  0.4155490838511255 F F F
  0.5000000000448708  0.0000000000000000  0.4155490838511255 F F F
  0.7499999999668603  0.0000000000000000  0.4155490838511255 F F F
  0.9999999999908766  0.2500000000406857  0.4155490838511255 F F F
  0.2500000000133085  0.2500000000406857  0.4155490838511255 F F F
  0.4999999999352980  0.2500000000406857  0.4155490838511255 F F F
  0.7499999999577369  0.2500000000406857  0.4155490838511255 F F F
  0.0000000000397407  0.4999999999653895  0.4155490838511255 F F F
  0.2500000000621725  0.4999999999653895  0.4155490838511255 F F F
  0.4999999999841620  0.4999999999653895  0.4155490838511255 F F F
  0.7500000000066009  0.4999999999653895  0.4155490838511255 F F F
  0.0000000000306102  0.7500000000060751  0.4155490838511255 F F F
  0.2499999999526068  0.7500000000060751  0.4155490838511255 F F F
  0.4999999999750386  0.7500000000060751  0.4155490838511255 F F F
  0.7499999995957083  0.7500000000060751  0.4155490838511255 F F F
  0.0833333333570963  0.0833333333082322  0.4718496946849839 F F F
  0.3333333333795352  0.0833333333082322  0.4718496946849839 F F F
  0.5833333333015247  0.0833333333082322  0.4718496946849839 F F F
  0.8333333333239565  0.0833333333082322  0.4718496946849839 F F F
  0.0833333333479729  0.3333333333489179  0.4718496946849839 F F F
  0.3333333333704047  0.3333333333489179  0.4718496946849839 F F F
  0.5833333332924013  0.3333333333489179  0.4718496946849839 F F F
  0.8333333333148332  0.3333333333489179  0.4718496946849839 F F F
  0.0833333333388495  0.5833333333896107  0.4718496946849839 F F F
  0.3333333332608390  0.5833333333896107  0.4718496946849839 F F F
  0.5833333332832709  0.5833333333896107  0.4718496946849839 F F F
  0.8333333329039405  0.5833333333896107  0.4718496946849839 F F F
  0.0833333333877135  0.8333333333143145  0.4718496946849839 F F F
  0.3333333333097031  0.8333333333143145  0.4718496946849839 F F F
  0.5833333333321349  0.8333333333143145  0.4718496946849839 F F F
  0.8333333334550090  0.8333333333143145  0.4718496946849839 F F F
  0.9166666666917678  0.1666666666164716  0.5281503055188423 F F F
  0.1666666667141996  0.1666666666164716  0.5281503055188423 F F F
  0.4166666667366314  0.1666666666164716  0.5281503055188423 F F F
  0.6666666666586281  0.1666666666164716  0.5281503055188423 F F F
  0.9166666666826372  0.4166666666571572  0.5281503055188423 F F F
  0.1666666667050691  0.4166666666571572  0.5281503055188423 F F F
  0.4166666666270658  0.4166666666571572  0.5281503055188423 F F F
  0.6666666666494976  0.4166666666571572  0.5281503055188423 F F F
  0.9166666666735140  0.6666666666978429  0.5281503055188423 F F F
  0.1666666666959458  0.6666666666978429  0.5281503055188423 F F F
  0.4166666666179353  0.6666666666978429  0.5281503055188423 F F F
  0.6666666666403742  0.6666666666978429  0.5281503055188423 F F F
  0.9166666667223780  0.9166666666225468  0.5281503055188423 F F F
  0.1666666666443675  0.9166666666225468  0.5281503055188423 F F F
  0.4166666666667993  0.9166666666225468  0.5281503055188423 F F F
  0.6666666662874690  0.9166666666225468  0.5281503055188423 F F F
  0.0010823571011979  0.0000565951744125  0.5830580081045675 T T T
  0.2478458074412952  0.0027439349439044  0.5845391443097959 T T T
  0.4976342075813885  0.0011923909450015  0.5854723363576999 T T T
  0.7507042209567183  0.9995035263263170  0.5838841014263004 T T T
  0.0044344230390258  0.2468837088927832  0.5822029889566561 T T T
  0.2470214243052322  0.2530116230015642  0.5834023155320081 T T T
  0.4984053750787817  0.2502089779148671  0.5826258495263876 T T T
  0.7580767172505762  0.2427497318217244  0.5856070326860778 T T T
  0.0028900790073270  0.4978422552449164  0.5830193915936828 T T T
  0.2485690392738054  0.4988817845449724  0.5826436538575188 T T T
  0.4955090340742583  0.5012703773898803  0.5854067478965421 T T T
  0.7501544568587614  0.4945200353835687  0.5851850532414901 T T T
  0.0006049990500877  0.7487307559591604  0.5840662497163758 T T T
  0.2472963786721860  0.7514312239564475  0.5839021291109124 T T T
  0.4979106578820865  0.7505914685056193  0.5833637227583640 T T T
  0.7512211187825636  0.7475122339972579  0.5849709910522800 T T T
  0.3365200465974967  0.5475002762083948  0.6555515664281070 T T T
  0.4945990997052975  0.4585574995283710  0.6405442345171637 T T T
  0.6082903482984875  0.5069653058664737  0.6359573559242172 T T T
  0.7267030857485735  0.2385750116494222  0.6401418465025145 T T T
  0.7594484491035307  0.3633457273214559  0.6360898213208472 T T T
  0.2732242519496147  0.6862941344165303  0.6636802283785097 T T T
  0.5693318222798875  0.2985212380166997  0.6482629743633207 T T T
  0.2796222386146832  0.4763342273513780  0.6600634919539720 T T T
  0.8012687838589236  0.1277202978075611  0.6536099185880391 T T T
  0.8660951948000959  0.3545646006629860  0.6466964979640702 T T T
  0.5878148811909092  0.6176686304435407  0.6468792235926500 T T T
  0.8354204013365202  0.8316335132080186  0.6082846052866498 T T T
  0.5832299059148123  0.8303877935173102  0.6080028852898790 T T T
  0.3322252522135050  0.8339623336490383  0.6076993834612018 T T T
  0.0795014151972377  0.8343508015662098  0.6082113085585873 T T T
  0.8385650191601327  0.5799778166584507  0.6077424570260150 T T T
  0.5837409584789566  0.0804727729311830  0.6075306013008451 T T T
  0.3266267196929213  0.0904833557139242  0.6090360472768362 T T T
