Ni   C    O    H 
   1.0000000000000000     
   9.9560634791065894   0.0000000000000000   0.0000000000000000
   4.9780317395532903   8.6222038945967903   0.0000000000000000
   0.0000000000000000   0.0000000000000000  36.0968188426423993
Ni   C    O    H 
64  5  2  12  
Selective dynamics
Direct
  0.0000000000000000  0.0000000000000000  0.4155500000000032 F F F
  0.2500000000000000  0.0000000000000000  0.4155500000000032 F F F
  0.5000000000000000  0.0000000000000000  0.4155500000000032 F F F
  0.7500000000000000  0.0000000000000000  0.4155500000000032 F F F
  0.0000000000000000  0.2500000000000000  0.4155500000000032 F F F
  0.2500000000000000  0.2500000000000000  0.4155500000000032 F F F
  0.5000000000000000  0.2500000000000000  0.4155500000000032 F F F
  0.7500000000000000  0.2500000000000000  0.4155500000000032 F F F
  0.0000000000000000  0.5000000000000000  0.4155500000000032 F F F
  0.2500000000000000  0.5000000000000000  0.4155500000000032 F F F
  0.5000000000000000  0.5000000000000000  0.4155500000000032 F F F
  0.7500000000000000  0.5000000000000000  0.4155500000000032 F F F
  0.0000000000000000  0.7500000000000000  0.4155500000000032 F F F
  0.2500000000000000  0.7500000000000000  0.4155500000000032 F F F
  0.5000000000000000  0.7500000000000000  0.4155500000000032 F F F
  0.7500000000000000  0.7500000000000000  0.4155500000000032 F F F
  0.0833299999999966  0.0833299999999966  0.4718500000000034 F F F
  0.3333299999999966  0.0833299999999966  0.4718500000000034 F F F
  0.5833299999999966  0.0833299999999966  0.4718500000000034 F F F
  0.8333299999999966  0.0833299999999966  0.4718500000000034 F F F
  0.0833299999999966  0.3333299999999966  0.4718500000000034 F F F
  0.3333299999999966  0.3333299999999966  0.4718500000000034 F F F
  0.5833299999999966  0.3333299999999966  0.4718500000000034 F F F
  0.8333299999999966  0.3333299999999966  0.4718500000000034 F F F
  0.0833299999999966  0.5833299999999966  0.4718500000000034 F F F
  0.3333299999999966  0.5833299999999966  0.4718500000000034 F F F
  0.5833299999999966  0.5833299999999966  0.4718500000000034 F F F
  0.8333299999999966  0.5833299999999966  0.4718500000000034 F F F
  0.0833299999999966  0.8333299999999966  0.4718500000000034 F F F
  0.3333299999999966  0.8333299999999966  0.4718500000000034 F F F
  0.5833299999999966  0.8333299999999966  0.4718500000000034 F F F
  0.8333299999999966  0.8333299999999966  0.4718500000000034 F F F
  0.9166700000000034  0.1666700000000034  0.5281499999999966 F F F
  0.1666700000000034  0.1666700000000034  0.5281499999999966 F F F
  0.4166700000000034  0.1666700000000034  0.5281499999999966 F F F
  0.6666700000000034  0.1666700000000034  0.5281499999999966 F F F
  0.9166700000000034  0.4166700000000034  0.5281499999999966 F F F
  0.1666700000000034  0.4166700000000034  0.5281499999999966 F F F
  0.4166700000000034  0.4166700000000034  0.5281499999999966 F F F
  0.6666700000000034  0.4166700000000034  0.5281499999999966 F F F
  0.9166700000000034  0.6666700000000034  0.5281499999999966 F F F
  0.1666700000000034  0.6666700000000034  0.5281499999999966 F F F
  0.4166700000000034  0.6666700000000034  0.5281499999999966 F F F
  0.6666700000000034  0.6666700000000034  0.5281499999999966 F F F
  0.9166700000000034  0.9166700000000034  0.5281499999999966 F F F
  0.1666700000000034  0.9166700000000034  0.5281499999999966 F F F
  0.4166700000000034  0.9166700000000034  0.5281499999999966 F F F
  0.6666700000000034  0.9166700000000034  0.5281499999999966 F F F
  0.9995200836362180  0.0007431502746825  0.5830274515297674 T T T
  0.2493932564819905  0.0006150208497079  0.5838596270940639 T T T
  0.4983971239673853  0.0010167449721806  0.5851632317746447 T T T
  0.7506885161602848  0.9982856638148300  0.5848488386892166 T T T
  0.9984071756250700  0.2483764309373186  0.5835218771379360 T T T
  0.2485588490272612  0.2530249196549223  0.5862753381164818 T T T
  0.5005018473060784  0.2496004482630157  0.5821518943490162 T T T
  0.7512351429762706  0.2507199907914243  0.5881073670110906 T T T
  0.0012397985713120  0.4988970586424934  0.5841851810541023 T T T
  0.2575079608792666  0.5003897984631150  0.5857929058316140 T T T
  0.4980422745646781  0.5038568333697749  0.5826004299659127 T T T
  0.7527363902742760  0.4948709274756741  0.5847167034735193 T T T
  0.9999582001311760  0.7481544189113258  0.5831975785131300 T T T
  0.2432904322459233  0.7560675243031788  0.5840195823157075 T T T
  0.4999474970418555  0.7498096984664707  0.5839122230448004 T T T
  0.7527187695108878  0.7462904083535127  0.5835824313899530 T T T
  0.2953873678822599  0.5608502993101318  0.6401833563687821 T T T
  0.4618240020803355  0.4953397807747891  0.6381538209638585 T T T
  0.5456704530145051  0.5780207033961193  0.6329813053286201 T T T
  0.7133070108206486  0.3153502501463643  0.6424172193633293 T T T
  0.7095504225503982  0.4623262490902216  0.6375378148687815 T T T
  0.2062887383742678  0.7125384384494682  0.6349573727504794 T T T
  0.5612243064681197  0.3455267357350815  0.6507368261897136 T T T
  0.7998513019939768  0.2213717096500298  0.6593981325670605 T T T
  0.7937388666094359  0.4863832300124696  0.6509795078356889 T T T
  0.4944485006301856  0.6998639999647546  0.6414804939328492 T T T
  0.2512866140303924  0.5018211005122768  0.6580389032881337 T T T
  0.1696129137228694  0.4294356266798275  0.6086009802574818 T T T
  0.0675857401040807  0.3322146549588315  0.6087460488978009 T T T
  0.8360190904992088  0.8273708238417794  0.6083315551929525 T T T
  0.5865796737347894  0.8320645853291575  0.6075574971917042 T T T
  0.8382329400607366  0.0734228527925323  0.6081661210794803 T T T
  0.5817594063796273  0.0859747331253079  0.6079460526346180 T T T
  0.3341802787154610  0.0820115749420148  0.6090249879254654 T T T
  0.0833517853771455  0.0793271974653111  0.6081433773651771 T T T
