Ni   C    O    H                        
   1.0000000000000000     
     9.9560634791065894    0.0000000000000000    0.0000000000000000
     4.9780317395532903    8.6222038945967903    0.0000000000000000
     0.0000000000000000    0.0000000000000000   36.0968188426423993
   Ni   C    O    H 
    64     5     2     4
Selective dynamics
Direct
  0.0000000000000000  0.0000000000000000  0.4155490838511255   F   F   F
  0.2500000000224318  0.0000000000000000  0.4155490838511255   F   F   F
  0.5000000000448708  0.0000000000000000  0.4155490838511255   F   F   F
  0.7499999999668603  0.0000000000000000  0.4155490838511255   F   F   F
  0.9999999999908766  0.2500000000406857  0.4155490838511255   F   F   F
  0.2500000000133085  0.2500000000406857  0.4155490838511255   F   F   F
  0.4999999999352980  0.2500000000406857  0.4155490838511255   F   F   F
  0.7499999999577369  0.2500000000406857  0.4155490838511255   F   F   F
  0.0000000000397407  0.4999999999653895  0.4155490838511255   F   F   F
  0.2500000000621725  0.4999999999653895  0.4155490838511255   F   F   F
  0.4999999999841620  0.4999999999653895  0.4155490838511255   F   F   F
  0.7500000000066009  0.4999999999653895  0.4155490838511255   F   F   F
  0.0000000000306102  0.7500000000060751  0.4155490838511255   F   F   F
  0.2499999999526068  0.7500000000060751  0.4155490838511255   F   F   F
  0.4999999999750386  0.7500000000060751  0.4155490838511255   F   F   F
  0.7499999995957083  0.7500000000060751  0.4155490838511255   F   F   F
  0.0833333333570963  0.0833333333082322  0.4718496946849839   F   F   F
  0.3333333333795352  0.0833333333082322  0.4718496946849839   F   F   F
  0.5833333333015247  0.0833333333082322  0.4718496946849839   F   F   F
  0.8333333333239565  0.0833333333082322  0.4718496946849839   F   F   F
  0.0833333333479729  0.3333333333489179  0.4718496946849839   F   F   F
  0.3333333333704047  0.3333333333489179  0.4718496946849839   F   F   F
  0.5833333332924013  0.3333333333489179  0.4718496946849839   F   F   F
  0.8333333333148332  0.3333333333489179  0.4718496946849839   F   F   F
  0.0833333333388495  0.5833333333896107  0.4718496946849839   F   F   F
  0.3333333332608390  0.5833333333896107  0.4718496946849839   F   F   F
  0.5833333332832709  0.5833333333896107  0.4718496946849839   F   F   F
  0.8333333329039405  0.5833333333896107  0.4718496946849839   F   F   F
  0.0833333333877135  0.8333333333143145  0.4718496946849839   F   F   F
  0.3333333333097031  0.8333333333143145  0.4718496946849839   F   F   F
  0.5833333333321349  0.8333333333143145  0.4718496946849839   F   F   F
  0.8333333334550090  0.8333333333143145  0.4718496946849839   F   F   F
  0.9166666666917678  0.1666666666164716  0.5281503055188423   F   F   F
  0.1666666667141996  0.1666666666164716  0.5281503055188423   F   F   F
  0.4166666667366314  0.1666666666164716  0.5281503055188423   F   F   F
  0.6666666666586281  0.1666666666164716  0.5281503055188423   F   F   F
  0.9166666666826373  0.4166666666571572  0.5281503055188423   F   F   F
  0.1666666667050691  0.4166666666571572  0.5281503055188423   F   F   F
  0.4166666666270658  0.4166666666571572  0.5281503055188423   F   F   F
  0.6666666666494976  0.4166666666571572  0.5281503055188423   F   F   F
  0.9166666666735139  0.6666666666978429  0.5281503055188423   F   F   F
  0.1666666666959458  0.6666666666978429  0.5281503055188423   F   F   F
  0.4166666666179353  0.6666666666978429  0.5281503055188423   F   F   F
  0.6666666666403742  0.6666666666978429  0.5281503055188423   F   F   F
  0.9166666667223780  0.9166666666225467  0.5281503055188423   F   F   F
  0.1666666666443675  0.9166666666225467  0.5281503055188423   F   F   F
  0.4166666666667993  0.9166666666225467  0.5281503055188423   F   F   F
  0.6666666662874690  0.9166666666225467  0.5281503055188423   F   F   F
  0.0011840078065788  0.9992293518125877  0.5827327854948692   T   T   T
  0.2513487686523916  0.0017207044861181  0.5828057162983598   T   T   T
  0.5013902225253943  0.0001463295068831  0.5832689557613264   T   T   T
  0.7512011149250242  0.9983557864657300  0.5831447831646273   T   T   T
  0.0044391524522851  0.2487639740527001  0.5825488282699780   T   T   T
  0.2513953387692496  0.2490152526347771  0.5832898692269950   T   T   T
  0.5021747734680986  0.2462316647198790  0.5824677486668079   T   T   T
  0.7593699906015559  0.2416993676370467  0.5859154135379612   T   T   T
  0.0013480998134980  0.5001844383933260  0.5828373199121373   T   T   T
  0.2492983102061075  0.4970319779032337  0.5835189738257398   T   T   T
  0.4934698819012837  0.5024354941558045  0.5836181438454346   T   T   T
  0.7499386990547592  0.4979780190463430  0.5862173825665451   T   T   T
  0.9976429762675139  0.7499972551889229  0.5828453655667190   T   T   T
  0.2461968215607797  0.7549452164373349  0.5856916745044387   T   T   T
  0.5023251336417118  0.7538301112379173  0.5825367557710095   T   T   T
  0.7521230411113322  0.7507785501076043  0.5827506538268992   T   T   T
  0.3550157172227060  0.5730263819698607  0.6380914938528335   T   T   T
  0.5208536431949540  0.4903729943127928  0.6396888184410940   T   T   T
  0.6281026084514139  0.5491859772937318  0.6368753241521574   T   T   T
  0.7577886746598210  0.2792247992079879  0.6403826960232095   T   T   T
  0.7811549883504227  0.4130299382123326  0.6388410092348167   T   T   T
  0.2751818519310589  0.7257217185615161  0.6382586997277642   T   T   T
  0.5990980167453870  0.3350813822642493  0.6497376952441769   T   T   T
  0.2961189898958310  0.5066740748064191  0.6453716999535573   T   T   T
  0.8349284433650439  0.1750339688859839  0.6560821530085406   T   T   T
  0.8834168936392146  0.4106766144822487  0.6504648382223763   T   T   T
  0.5974444222483726  0.6649884653673297  0.6466144354064056   T   T   T

  0.00000000E+00  0.00000000E+00  0.00000000E+00
  0.00000000E+00  0.00000000E+00  0.00000000E+00
  0.00000000E+00  0.00000000E+00  0.00000000E+00
  0.00000000E+00  0.00000000E+00  0.00000000E+00
  0.00000000E+00  0.00000000E+00  0.00000000E+00
  0.00000000E+00  0.00000000E+00  0.00000000E+00
  0.00000000E+00  0.00000000E+00  0.00000000E+00
  0.00000000E+00  0.00000000E+00  0.00000000E+00
  0.00000000E+00  0.00000000E+00  0.00000000E+00
  0.00000000E+00  0.00000000E+00  0.00000000E+00
  0.00000000E+00  0.00000000E+00  0.00000000E+00
  0.00000000E+00  0.00000000E+00  0.00000000E+00
  0.00000000E+00  0.00000000E+00  0.00000000E+00
  0.00000000E+00  0.00000000E+00  0.00000000E+00
  0.00000000E+00  0.00000000E+00  0.00000000E+00
  0.00000000E+00  0.00000000E+00  0.00000000E+00
  0.00000000E+00  0.00000000E+00  0.00000000E+00
  0.00000000E+00  0.00000000E+00  0.00000000E+00
  0.00000000E+00  0.00000000E+00  0.00000000E+00
  0.00000000E+00  0.00000000E+00  0.00000000E+00
  0.00000000E+00  0.00000000E+00  0.00000000E+00
  0.00000000E+00  0.00000000E+00  0.00000000E+00
  0.00000000E+00  0.00000000E+00  0.00000000E+00
  0.00000000E+00  0.00000000E+00  0.00000000E+00
  0.00000000E+00  0.00000000E+00  0.00000000E+00
  0.00000000E+00  0.00000000E+00  0.00000000E+00
  0.00000000E+00  0.00000000E+00  0.00000000E+00
  0.00000000E+00  0.00000000E+00  0.00000000E+00
  0.00000000E+00  0.00000000E+00  0.00000000E+00
  0.00000000E+00  0.00000000E+00  0.00000000E+00
  0.00000000E+00  0.00000000E+00  0.00000000E+00
  0.00000000E+00  0.00000000E+00  0.00000000E+00
  0.00000000E+00  0.00000000E+00  0.00000000E+00
  0.00000000E+00  0.00000000E+00  0.00000000E+00
  0.00000000E+00  0.00000000E+00  0.00000000E+00
  0.00000000E+00  0.00000000E+00  0.00000000E+00
  0.00000000E+00  0.00000000E+00  0.00000000E+00
  0.00000000E+00  0.00000000E+00  0.00000000E+00
  0.00000000E+00  0.00000000E+00  0.00000000E+00
  0.00000000E+00  0.00000000E+00  0.00000000E+00
  0.00000000E+00  0.00000000E+00  0.00000000E+00
  0.00000000E+00  0.00000000E+00  0.00000000E+00
  0.00000000E+00  0.00000000E+00  0.00000000E+00
  0.00000000E+00  0.00000000E+00  0.00000000E+00
  0.00000000E+00  0.00000000E+00  0.00000000E+00
  0.00000000E+00  0.00000000E+00  0.00000000E+00
  0.00000000E+00  0.00000000E+00  0.00000000E+00
  0.00000000E+00  0.00000000E+00  0.00000000E+00
  0.00000000E+00  0.00000000E+00  0.00000000E+00
  0.00000000E+00  0.00000000E+00  0.00000000E+00
  0.00000000E+00  0.00000000E+00  0.00000000E+00
  0.00000000E+00  0.00000000E+00  0.00000000E+00
  0.00000000E+00  0.00000000E+00  0.00000000E+00
  0.00000000E+00  0.00000000E+00  0.00000000E+00
  0.00000000E+00  0.00000000E+00  0.00000000E+00
  0.00000000E+00  0.00000000E+00  0.00000000E+00
  0.00000000E+00  0.00000000E+00  0.00000000E+00
  0.00000000E+00  0.00000000E+00  0.00000000E+00
  0.00000000E+00  0.00000000E+00  0.00000000E+00
  0.00000000E+00  0.00000000E+00  0.00000000E+00
  0.00000000E+00  0.00000000E+00  0.00000000E+00
  0.00000000E+00  0.00000000E+00  0.00000000E+00
  0.00000000E+00  0.00000000E+00  0.00000000E+00
  0.00000000E+00  0.00000000E+00  0.00000000E+00
  0.00000000E+00  0.00000000E+00  0.00000000E+00
  0.00000000E+00  0.00000000E+00  0.00000000E+00
  0.00000000E+00  0.00000000E+00  0.00000000E+00
  0.00000000E+00  0.00000000E+00  0.00000000E+00
  0.00000000E+00  0.00000000E+00  0.00000000E+00
  0.00000000E+00  0.00000000E+00  0.00000000E+00
  0.00000000E+00  0.00000000E+00  0.00000000E+00
  0.00000000E+00  0.00000000E+00  0.00000000E+00
  0.00000000E+00  0.00000000E+00  0.00000000E+00
  0.00000000E+00  0.00000000E+00  0.00000000E+00
  0.00000000E+00  0.00000000E+00  0.00000000E+00
